34	63
47	1
5	31
93	9
91	64
57	45
55	44
2	40
46	3
32	29
99	83
8	27
87	93
92	38
39	83
72	2
66	86
5	70
44	73
18	43
59	76
88	80
75	13
64	11
49	20
23	9
77	94
92	5
11	91
70	0
39	42
32	61
79	90
54	53
90	89
70	47
39	70
72	95
77	61
3	41